0 7767663
325 7525887
650 7446673
975 7382232
1300 7307313
1625 7257252
1950 7226230
2275 7201471
2600 7192632
2925 7185356
3250 7174276
3575 7168257
3900 7164986
4225 7161069
4550 7159451
4875 7158151
5200 7157078
5525 7155518
5850 7144481
6175 7143767
6500 7143067
6825 7142634
7150 7142374
7475 7142265
7800 7142190
8125 7142141
